Optimize a model with 66 rows, 75 columns and 222 nonzeros
Found heuristic solution: objective 57
Presolve removed 66 rows and 75 columns
Presolve time: 0.01s

Explored 0 nodes (0 simplex iterations) in 0.01 seconds
Thread count was 1 (of 8 available processors)

Optimal solution found (tolerance 1.00e-04)
Best objective 6.600000000000e+01, best bound 6.600000000000e+01, gap 0.0%

Gurobi 5.5.0 (mac64) logging started Sat Jan 31 23:58:58 2015

Optimize a model with 66 rows, 75 columns and 222 nonzeros
Found heuristic solution: objective 57
Presolve removed 66 rows and 75 columns
Presolve time: 0.00s

Explored 0 nodes (0 simplex iterations) in 0.00 seconds
Thread count was 1 (of 8 available processors)

Optimal solution found (tolerance 1.00e-04)
Best objective 6.600000000000e+01, best bound 6.600000000000e+01, gap 0.0%

Gurobi 5.5.0 (mac64) logging started Sun Feb  1 01:03:08 2015

